35 1000
3 152
7 111
3 113
4 162
5 148
5 113
7 113
3 175
11 100
5 148
2 152
11 162
7 179
10 104
6 141
7 107
3 119
5 113
7 18
11 119
7 163
11 175
10 100
6 129
11 163
11 141
11 129
6 136
7 136
6 179
5 129
9 107
2 104
5 111
10 129
